Regular 31 x 31 x 1 mesh centered at Gamma 
0
Gamma
31 31 1
