Nb Se 
 1.0000000000000000
    10.4349999999999991    0.0000000000000000    0.0000000000000000
    -5.1674999999999995    8.9503725481121741    0.0000000000000000
     0.0000000000000000    0.0000000000000000   18.0000000000000000
 Nb  Se 
   9  18
Direct
0.000000000	0.000000000	0.500000000
0.000000000	0.333333330	0.500000000
0.000000000	0.666666670	0.500000000
0.333333330	0.000000000	0.500000000
0.333333330	0.333333330	0.500000000
0.333333330	0.666666670	0.500000000
0.666666670	0.000000000	0.500000000
0.666666670	0.333333330	0.500000000
0.666666670	0.666666670	0.500000000
0.222222220	0.111111110	0.591326490
0.222222220	0.111111110	0.408673510
0.222222220	0.444444440	0.591326490
0.222222220	0.444444440	0.408673510
0.222222220	0.777777780	0.591326490
0.222222220	0.777777780	0.408673510
0.555555560	0.111111110	0.591326490
0.555555560	0.111111110	0.408673510
0.555555560	0.444444440	0.591326490
0.555555560	0.444444440	0.408673510
0.555555560	0.777777780	0.591326490
0.555555560	0.777777780	0.408673510
0.888888890	0.111111110	0.591326490
0.888888890	0.111111110	0.408673510
0.888888890	0.444444440	0.591326490
0.888888890	0.444444440	0.408673510
0.888888890	0.777777780	0.591326490
0.888888890	0.777777780	0.408673510
